Problem:    
Rows:       248
Columns:    89 (72 integer, 72 binary)
Non-zeros:  820
Status:     INTEGER OPTIMAL
Objective:  value = 21.405947 (MINimum)

   No.   Row name        Activity     Lower bound   Upper bound
------ ------------    ------------- ------------- -------------
     1 r.5                   521.406             0               
     2 r.6                  -486.889      -496.965               
     3 r.7                   21.4059             0               
     4 r.8                   5.29096      -495.063               
     5 r.9                   521.406             0               
     6 r.10                 -495.152      -496.555               
     7 r.11                  21.4059             0               
     8 r.12                 -470.861      -491.958               
     9 r.13                  21.4059             0               
    10 r.14                 -473.839      -495.245               
    11 r.15                  521.406             0               
    12 r.16                 -481.902       -495.93               
    13 r.17                  21.4059             0               
    14 r.18                 -476.148      -497.553               
    15 r.19                  521.406             0               
    16 r.20                 -488.972      -495.573               
    17 r.21                  521.406             0               
    18 r.22                 -489.924      -497.772               
    19 r.23                  21.4059             0               
    20 r.24                  6.60061       -498.69               
    21 r.25                  521.406             0               
    22 r.26                 -478.594      -494.705               
    23 r.27                  21.4059             0               
    24 r.28                  6.60062      -490.828               
    25 r.29                  21.4059             0               
    26 r.30                   10.076      -493.939               
    27 r.31                  521.406             0               
    28 r.32                 -478.594      -499.692               
    29 r.33                  21.4059             0               
    30 r.34                 0.600615      -499.754               
    31 r.35                  521.406             0               
    32 r.36                 -499.399      -499.399               
    33 r.37                        1             1             = 
    34 r.38                        1             1             = 
    35 r.39                        1             1             = 
    36 r.40                        1             1             = 
    37 r.41                        1             1             = 
    38 r.42                        1             1             = 
    39 r.43                        1             1             = 
    40 r.44                        1             1             = 
    41 r.45                  491.737       3.44453               
    42 r.46                 -494.737      -496.965               
    43 r.47                  23.8484       8.04154               
    44 r.48                 -20.8484      -495.063               
    45 r.49                  13.0498       4.75495               
    46 r.50                 -13.0498      -496.965               
    47 r.51                  12.8069       4.06993               
    48 r.52                 -12.8069      -495.063               
    49 r.53                  10.7414       2.44651               
    50 r.54                 -10.7414      -496.965               
    51 r.55                  5.73694       4.42728               
    52 r.56                 -5.73694      -495.063               
    53 r.57                  496.965       2.22793               
    54 r.58                 -496.965      -496.965               
    55 r.59                  1.30966       1.30966               
    56 r.60                 -1.30966      -495.063               
    57 r.61                 -491.705      -491.705               
    58 r.62                 -6.51047      -487.828               
    59 r.63                 -483.885      -491.705               
    60 r.64                  1.30966      -487.828               
    61 r.65                  496.965       6.06112               
    62 r.66                 -496.965      -496.965               
    63 r.67                   16.115      0.308121               
    64 r.68                  -16.115      -495.063               
    65 r.69                  -487.49      -493.965               
    66 r.70                  4.69034      -492.063               
    67 r.71                  -487.49      -493.965               
    68 r.72                  4.69034      -492.063               
    69 r.73                  5.26297       3.03504               
    70 r.74                 -5.26297      -496.555               
    71 r.75                  479.152       4.93693               
    72 r.76                 -479.152      -491.958               
    73 r.77                  18.3128       4.75495               
    74 r.78                 -18.3128      -496.555               
    75 r.79                  491.958       4.06993               
    76 r.80                 -491.958      -491.958               
    77 r.81                  16.0043       2.44651               
    78 r.82                 -16.0043      -496.555               
    79 r.83                  484.889       4.42728               
    80 r.84                 -484.889      -491.958               
    81 r.85                  2.22793       2.22793               
    82 r.86                 -2.22793      -496.555               
    83 r.87                  480.461       1.30966               
    84 r.88                 -480.461      -491.958               
    85 r.89                  13.5578       5.29487               
    86 r.90                 -13.5578      -496.555               
    87 r.91                  480.461       9.17241               
    88 r.92                 -480.461      -491.958               
    89 r.93                  2.22793      -490.939               
    90 r.94                 -486.442      -496.692               
    91 r.95                  483.937      -490.939               
    92 r.96                 -4.73342      -496.692               
    93 r.97                 -492.753      -493.555               
    94 r.98                 -474.461      -488.958               
    95 r.99                 -492.753      -493.555               
    96 r.100                -474.461      -488.958               
    97 r.101                  486.95       3.03504               
    98 r.102                 -486.95      -495.245               
    99 r.103                 487.193       4.93693               
   100 r.104                -487.193       -495.93               
   101 r.105                 478.687       3.44453               
   102 r.106                -481.687      -495.245               
   103 r.107                 11.0415       8.04154               
   104 r.108                -8.04154       -495.93               
   105 r.109                 2.30844      -492.245               
   106 r.110                -5.75463       -492.93               
   107 r.111                -484.867      -492.245               
   108 r.112                 -492.93       -492.93               
   109 r.113                 483.915       2.22793               
   110 r.114                -483.915      -495.245               
   111 r.115                 488.503       1.30966               
   112 r.116                -488.503       -495.93               
   113 r.117                 495.245       5.29487               
   114 r.118                -495.245      -495.245               
   115 r.119                 488.503       9.17241               
   116 r.120                -488.503       -495.93               
   117 r.121                 483.915      -490.939               
   118 r.122                -4.75495      -496.692               
   119 r.123                -8.02179      -490.939               
   120 r.124                -496.692      -496.692               
   121 r.125                 -474.44      -492.245               
   122 r.126                -482.503       -492.93               
   123 r.127                 -474.44      -492.245               
   124 r.128                -482.503       -492.93               
   125 r.129                 489.259       3.03504               
   126 r.130                -489.259      -497.553               
   127 r.131                 494.263       4.93693               
   128 r.132                -494.263      -495.573               
   129 r.133                 480.996       3.44453               
   130 r.134                -483.996      -497.553               
   131 r.135                 18.1115       8.04154               
   132 r.136                -15.1115      -495.573               
   133 r.137                 2.30844      -492.245               
   134 r.138                -5.75463       -492.93               
   135 r.139                -484.867      -492.245               
   136 r.140                 -492.93       -492.93               
   137 r.141                 486.224       2.22793               
   138 r.142                -486.224      -497.553               
   139 r.143                 495.573       1.30966               
   140 r.144                -495.573      -495.573               
   141 r.145                 497.553       5.29487               
   142 r.146                -497.553      -497.553               
   143 r.147                 495.573       9.17241               
   144 r.148                -495.573      -495.573               
   145 r.149                 486.224      -490.939               
   146 r.150                -2.44651      -496.692               
   147 r.151               -0.951859      -490.939               
   148 r.152                -489.622      -496.692               
   149 r.153                -476.748      -491.553               
   150 r.154                -489.573      -489.573               
   151 r.155                -476.748      -491.553               
   152 r.156                -489.573      -489.573               
   153 r.157                 3.03504       3.03504               
   154 r.158                -3.03504      -497.772               
   155 r.159                  498.69       4.93693               
   156 r.160                 -498.69       -498.69               
   157 r.161                 494.772       3.44453               
   158 r.162                -497.772      -497.772               
   159 r.163                 22.5388       8.04154               
   160 r.164                -19.5388       -498.69               
   161 r.165                 16.0849       4.75495               
   162 r.166                -16.0849      -497.772               
   163 r.167                 11.4972       4.06993               
   164 r.168                -11.4972       -498.69               
   165 r.169                 13.7764       2.44651               
   166 r.170                -13.7764      -497.772               
   167 r.171                 4.42728       4.42728               
   168 r.172                -4.42728       -498.69               
   169 r.173                 -488.67      -491.705               
   170 r.174                -3.47543      -487.828               
   171 r.175                -485.195      -491.705               
   172 r.176                       0      -487.828               
   173 r.177                       0      -490.939               
   174 r.178                 -488.67      -496.692               
   175 r.179                 3.47543      -490.939               
   176 r.180                -485.195      -496.692               
   177 r.181                -490.525      -491.772               
   178 r.182                       6       -492.69               
   179 r.183                -490.525      -491.772               
   180 r.184                       6       -492.69               
   181 r.185                -491.705      -491.705               
   182 r.186                -6.51047      -487.828               
   183 r.187                -483.885      -491.705               
   184 r.188                 1.30966      -487.828               
   185 r.189                 483.442       3.44453               
   186 r.190                -486.442      -494.705               
   187 r.191                 22.5388       8.04154               
   188 r.192                -19.5388      -490.828               
   189 r.193                 4.75495       4.75495               
   190 r.194                -4.75495      -494.705               
   191 r.195                 11.4972       4.06993               
   192 r.196                -11.4972      -490.828               
   193 r.197                 2.44651       2.44651               
   194 r.198                -2.44651      -494.705               
   195 r.199                 4.42728       4.42728               
   196 r.200                -4.42728      -490.828               
   197 r.201                 -488.67      -491.705               
   198 r.202                -3.47543      -487.828               
   199 r.203                -485.195      -491.705               
   200 r.204                       0      -487.828               
   201 r.205                  488.67       6.06112               
   202 r.206                 -488.67      -494.705               
   203 r.207                 14.8053      0.308121               
   204 r.208                -14.8053      -490.828               
   205 r.209                 3.03504       3.03504               
   206 r.210                -3.03504      -493.939               
   207 r.211                 483.885       4.93693               
   208 r.212                -483.885      -499.692               
   209 r.213                 2.22793      -490.939               
   210 r.214                -486.442      -496.692               
   211 r.215                 483.937      -490.939               
   212 r.216                -4.73342      -496.692               
   213 r.217                 483.915      -490.939               
   214 r.218                -4.75495      -496.692               
   215 r.219                -8.02179      -490.939               
   216 r.220                -496.692      -496.692               
   217 r.221                 486.224      -490.939               
   218 r.222                -2.44651      -496.692               
   219 r.223               -0.951859      -490.939               
   220 r.224                -489.622      -496.692               
   221 r.225                       0      -490.939               
   222 r.226                 -488.67      -496.692               
   223 r.227                 3.47543      -490.939               
   224 r.228                -485.195      -496.692               
   225 r.229                 11.3299       5.29487               
   226 r.230                -11.3299      -493.939               
   227 r.231                 485.195       9.17241               
   228 r.232                -485.195      -499.692               
   229 r.233                 -487.49      -493.965               
   230 r.234                 4.69034      -492.063               
   231 r.235                 -487.49      -493.965               
   232 r.236                 4.69034      -492.063               
   233 r.237                -492.753      -493.555               
   234 r.238                -474.461      -488.958               
   235 r.239                -492.753      -493.555               
   236 r.240                -474.461      -488.958               
   237 r.241                 -474.44      -492.245               
   238 r.242                -482.503       -492.93               
   239 r.243                 -474.44      -492.245               
   240 r.244                -482.503       -492.93               
   241 r.245                -476.748      -491.553               
   242 r.246                -489.573      -489.573               
   243 r.247                -476.748      -491.553               
   244 r.248                -489.573      -489.573               
   245 r.249                -490.525      -491.772               
   246 r.250                       6       -492.69               
   247 r.251                -490.525      -491.772               
   248 r.252                       6       -492.69               

   No. Column name       Activity     Lower bound   Upper bound
------ ------------    ------------- ------------- -------------
     1 tt                    21.4059             0               
     2 s_1_1        *              1             0             1 
     3 t_1_1                 8.29487             0               
     4 s_1_6        *              1             0             1 
     5 s_2_1        *              0             0             1 
     6 t_2_1                  16.115             0               
     7 s_2_6        *              0             0             1 
     8 s_1_2        *              1             0             1 
     9 t_1_2                 13.5578             0               
    10 s_1_7        *              0             0             1 
    11 s_2_2        *              0             0             1 
    12 t_2_2                 495.267             0               
    13 s_2_7        *              1             0             1 
    14 s_1_3        *              0             0             1 
    15 t_1_3                 495.245             0               
    16 s_2_3        *              1             0             1 
    17 t_2_3                 3.30812             0               
    18 s_1_4        *              0             0             1 
    19 t_1_4                 497.553             0               
    20 s_2_4        *              1             0             1 
    21 t_2_4                  10.378             0               
    22 s_1_5        *              1             0             1 
    23 t_1_5                 11.3299             0               
    24 s_2_5        *              0             0             1 
    25 t_2_5                 14.8053             0               
    26 t_1_6                       0             0               
    27 t_2_6                 14.8053             0               
    28 t_1_7                 11.3299             0               
    29 t_2_7                       0             0               
    30 s_1_8        *              0             0             1 
    31 t_1_8                 20.8053             0               
    32 s_2_8        *              1             0             1 
    33 t_2_8                 20.8053             0               
    34 u_1_1_2      *              1             0             1 
    35 u_2_1_2      *              1             0             1 
    36 u_1_1_3      *              1             0             1 
    37 u_2_1_3      *              0             0             1 
    38 u_1_1_4      *              1             0             1 
    39 u_2_1_4      *              0             0             1 
    40 u_1_1_5      *              1             0             1 
    41 u_2_1_5      *              0             0             1 
    42 u_1_1_7      *              1             0             1 
    43 u_2_1_7      *              0             0             1 
    44 u_1_2_1      *              0             0             1 
    45 u_2_2_1      *              0             0             1 
    46 u_1_2_3      *              1             0             1 
    47 u_2_2_3      *              0             0             1 
    48 u_1_2_4      *              1             0             1 
    49 u_2_2_4      *              0             0             1 
    50 u_1_2_5      *              0             0             1 
    51 u_2_2_5      *              0             0             1 
    52 u_1_2_6      *              0             0             1 
    53 u_2_2_6      *              0             0             1 
    54 u_1_3_1      *              0             0             1 
    55 u_2_3_1      *              1             0             1 
    56 u_1_3_2      *              0             0             1 
    57 u_2_3_2      *              1             0             1 
    58 u_1_3_5      *              0             0             1 
    59 u_2_3_5      *              1             0             1 
    60 u_1_3_6      *              0             0             1 
    61 u_2_3_6      *              1             0             1 
    62 u_1_4_1      *              0             0             1 
    63 u_2_4_1      *              1             0             1 
    64 u_1_4_2      *              0             0             1 
    65 u_2_4_2      *              1             0             1 
    66 u_1_4_5      *              0             0             1 
    67 u_2_4_5      *              1             0             1 
    68 u_1_4_6      *              0             0             1 
    69 u_2_4_6      *              1             0             1 
    70 u_1_5_1      *              0             0             1 
    71 u_2_5_1      *              1             0             1 
    72 u_1_5_2      *              1             0             1 
    73 u_2_5_2      *              1             0             1 
    74 u_1_5_3      *              1             0             1 
    75 u_2_5_3      *              0             0             1 
    76 u_1_5_4      *              1             0             1 
    77 u_2_5_4      *              0             0             1 
    78 u_1_6_2      *              1             0             1 
    79 u_2_6_2      *              1             0             1 
    80 u_1_6_3      *              1             0             1 
    81 u_2_6_3      *              0             0             1 
    82 u_1_6_4      *              1             0             1 
    83 u_2_6_4      *              0             0             1 
    84 u_1_6_7      *              1             0             1 
    85 u_2_6_7      *              0             0             1 
    86 u_1_7_1      *              0             0             1 
    87 u_2_7_1      *              1             0             1 
    88 u_1_7_6      *              0             0             1 
    89 u_2_7_6      *              1             0             1 

Integer feasibility conditions:

KKT.PE: max.abs.err = 1.14e-13 on row 6
        max.rel.err = 1.11e-16 on row 73
        High quality

KKT.PB: max.abs.err = 1.42e-14 on row 195
        max.rel.err = 2.62e-15 on row 195
        High quality

End of output
